c pcminimize - minimizing a CNF with respect to propagation completeness by iterative removing of absorbed clauses.
c Petr Kucera, 2016-2021
c Version 2.7, revision 59, git hash 4910a71, date 2024-07-16 20:17:42 +0200
p cnf 646 1493
131 -252 0
251 -252 0
252 -253 0
103 -253 0
52 -255 0
254 -255 0
255 -256 0
-103 -256 0
253 256 -257 0
59 -258 0
258 -260 0
259 -260 0
260 -261 0
152 -261 0
262 -263 0
128 -263 0
59 -264 0
-128 -264 0
263 264 -265 0
265 -266 0
91 -266 0
266 -267 0
-152 -267 0
261 267 -268 0
240 -270 0
269 -270 0
270 -271 0
28 -271 0
269 -272 0
240 -272 0
26 -273 0
-240 -273 0
272 273 -274 0
274 -275 0
-28 -275 0
271 275 -276 0
268 -277 0
276 -277 0
277 -279 0
278 -279 0
279 -280 0
204 -280 0
259 -281 0
152 -281 0
91 -282 0
-152 -282 0
281 282 -283 0
59 -284 0
157 -284 0
240 -284 0
269 -286 0
285 -286 0
283 -287 0
284 -287 0
286 -287 0
287 -288 0
-204 -288 0
280 288 -289 0
56 -290 0
63 -290 0
291 -292 0
-63 -292 0
290 292 -293 0
293 -294 0
189 -294 0
291 -295 0
295 -296 0
-189 -296 0
294 296 -297 0
297 -298 0
298 -301 0
299 -301 0
300 -301 0
301 -302 0
122 -302 0
-74 -303 0
-195 -303 0
303 -304 0
291 -304 0
304 -306 0
305 -306 0
306 -307 0
-122 -307 0
302 307 -308 0
45 -309 0
309 -311 0
310 -311 0
311 -312 0
155 -312 0
310 -314 0
313 -314 0
314 -315 0
166 -315 0
-45 -316 0
208 -316 0
316 -317 0
-166 -317 0
315 317 -318 0
318 -319 0
-155 -319 0
312 319 -320 0
6 -321 0
7 -321 0
10 -321 0
22 -321 0
-27 -321 0
34 -321 0
37 -321 0
-40 -321 0
-43 -321 0
-46 -321 0
47 -321 0
-48 -321 0
-69 -321 0
73 -321 0
83 -321 0
-86 -321 0
87 -321 0
95 -321 0
102 -321 0
-105 -321 0
-110 -321 0
115 -321 0
125 -321 0
-130 -321 0
-133 -321 0
-137 -321 0
-140 -321 0
141 -321 0
-145 -321 0
146 -321 0
-156 -321 0
159 -321 0
164 -321 0
168 -321 0
176 -321 0
177 -321 0
187 -321 0
191 -321 0
-192 -321 0
194 -321 0
197 -321 0
200 -321 0
-203 -321 0
211 -321 0
-212 -321 0
215 -321 0
225 -321 0
229 -321 0
-230 -321 0
235 -321 0
236 -321 0
238 -321 0
243 -321 0
-244 -321 0
248 -321 0
-249 -321 0
322 -332 0
323 -332 0
324 -332 0
325 -332 0
326 -332 0
327 -332 0
328 -332 0
329 -332 0
330 -332 0
331 -332 0
257 -333 0
289 -333 0
308 -333 0
320 -333 0
321 -333 0
332 -333 0
333 -334 0
-167 -334 0
334 -336 0
335 -336 0
336 -337 0
72 -337 0
337 -338 0
55 -339 0
338 -340 0
339 -340 0
340 -341 0
64 -342 0
161 -342 0
341 -343 0
342 -343 0
343 -344 0
-93 -345 0
-109 -345 0
163 -345 0
344 -346 0
345 -346 0
346 -347 0
132 -347 0
347 -348 0
-53 -349 0
-135 -349 0
349 -350 0
223 -354 0
-37 -355 0
208 -355 0
356 -357 0
-208 -357 0
355 357 -358 0
359 -360 0
211 -360 0
225 -361 0
-211 -361 0
360 361 -362 0
362 -364 0
363 -364 0
364 -365 0
185 -365 0
211 -366 0
212 -366 0
366 -367 0
359 -367 0
367 -368 0
-185 -368 0
365 368 -369 0
74 -370 0
51 -370 0
300 -371 0
-51 -371 0
370 371 -372 0
372 -373 0
-108 -373 0
373 -374 0
236 -374 0
-51 -375 0
300 -375 0
375 -376 0
325 -376 0
376 -377 0
-236 -377 0
374 377 -378 0
6 -379 0
-7 -379 0
10 -379 0
-26 -379 0
28 -379 0
-32 -379 0
-40 -379 0
-43 -379 0
45 -379 0
-52 -379 0
58 -379 0
59 -379 0
-71 -379 0
-80 -379 0
90 -379 0
95 -379 0
-98 -379 0
-102 -379 0
-105 -379 0
-110 -379 0
-115 -379 0
-117 -379 0
122 -379 0
-125 -379 0
-131 -379 0
-133 -379 0
-145 -379 0
146 -379 0
152 -379 0
-155 -379 0
-157 -379 0
-161 -379 0
-168 -379 0
-173 -379 0
176 -379 0
194 -379 0
-195 -379 0
-197 -379 0
204 -379 0
240 -379 0
243 -379 0
244 -379 0
-249 -379 0
-250 -379 0
380 -383 0
322 -383 0
291 -383 0
259 -383 0
381 -383 0
382 -383 0
328 -383 0
358 -384 0
369 -384 0
378 -384 0
379 -384 0
383 -384 0
384 -385 0
385 -387 0
386 -387 0
387 -388 0
388 -389 0
389 -390 0
390 -391 0
391 -392 0
45 -393 0
248 -393 0
393 -394 0
155 -394 0
313 -395 0
395 -396 0
-155 -396 0
394 396 -397 0
398 -399 0
125 -399 0
105 -400 0
-125 -400 0
399 400 -401 0
402 -403 0
40 -403 0
6 -404 0
-40 -404 0
403 404 -405 0
401 -406 0
405 -406 0
406 -407 0
259 -407 0
407 -408 0
152 -408 0
91 -409 0
6 -409 0
259 -410 0
-6 -410 0
409 410 -411 0
411 -412 0
40 -412 0
6 -413 0
91 -413 0
413 -414 0
-40 -414 0
412 414 -415 0
415 -416 0
125 -416 0
398 -416 0
416 -417 0
-152 -417 0
408 417 -418 0
418 -419 0
363 -419 0
419 -420 0
102 -420 0
283 -421 0
398 -421 0
421 -422 0
125 -422 0
105 -423 0
152 -423 0
423 -424 0
259 -424 0
424 -425 0
-125 -425 0
422 425 -426 0
6 -427 0
212 -427 0
426 -429 0
427 -429 0
428 -429 0
429 -430 0
-102 -430 0
420 430 -431 0
397 -432 0
431 -432 0
-133 -432 0
432 -433 0
299 -433 0
433 -434 0
168 -434 0
435 -436 0
248 -436 0
-133 -437 0
-248 -437 0
436 437 -438 0
438 -439 0
45 -439 0
439 -440 0
155 -440 0
435 -441 0
441 -442 0
313 -442 0
442 -443 0
-155 -443 0
440 443 -444 0
6 -445 0
40 -445 0
-102 -445 0
-195 -445 0
212 -445 0
444 -446 0
426 -446 0
445 -446 0
446 -447 0
-168 -447 0
434 447 -448 0
449 -450 0
240 -450 0
204 -451 0
-240 -451 0
450 451 -452 0
452 -453 0
197 -453 0
204 -455 0
454 -455 0
455 -456 0
-197 -456 0
453 456 -457 0
458 -459 0
176 -459 0
115 -460 0
-176 -460 0
459 460 -461 0
462 -463 0
10 -463 0
-194 -464 0
-10 -464 0
463 464 -465 0
465 -466 0
244 -466 0
-10 -467 0
-194 -467 0
467 -468 0
-244 -468 0
466 468 -469 0
7 -470 0
249 -470 0
471 -472 0
-249 -472 0
470 472 -473 0
457 -474 0
461 -474 0
469 -474 0
473 -474 0
474 -475 0
146 -475 0
449 -476 0
197 -476 0
204 -477 0
-197 -477 0
476 477 -478 0
7 -479 0
240 -479 0
478 -480 0
479 -480 0
480 -481 0
249 -481 0
457 -482 0
471 -482 0
482 -483 0
-249 -483 0
481 483 -484 0
-10 -485 0
115 -485 0
-176 -485 0
-194 -485 0
-244 -485 0
484 -486 0
485 -486 0
486 -487 0
-146 -487 0
475 487 -488 0
43 -489 0
95 -489 0
110 -489 0
381 -491 0
490 -491 0
448 -492 0
488 -492 0
489 -492 0
491 -492 0
492 -494 0
493 -494 0
494 -495 0
145 -495 0
496 -497 0
212 -497 0
102 -498 0
-212 -498 0
497 498 -499 0
381 -500 0
398 -500 0
500 -501 0
95 -501 0
105 -502 0
381 -502 0
502 -503 0
-95 -503 0
501 503 -504 0
504 -505 0
283 -505 0
505 -506 0
125 -506 0
381 -508 0
507 -508 0
259 -508 0
423 -509 0
508 -509 0
509 -510 0
-125 -510 0
506 510 -511 0
499 -512 0
511 -512 0
512 -513 0
428 -513 0
513 -514 0
6 -514 0
398 -516 0
515 -516 0
516 -517 0
125 -517 0
423 -518 0
-125 -518 0
517 518 -519 0
519 -520 0
381 -520 0
520 -521 0
95 -521 0
515 -522 0
125 -522 0
152 -523 0
-125 -523 0
522 523 -524 0
524 -525 0
105 -525 0
381 -525 0
525 -526 0
-95 -526 0
521 526 -527 0
40 -528 0
102 -528 0
527 -529 0
528 -529 0
363 -529 0
529 -530 0
259 -530 0
530 -531 0
-6 -531 0
514 531 -532 0
397 -533 0
532 -533 0
-133 -533 0
533 -534 0
299 -534 0
534 -535 0
168 -535 0
444 -536 0
511 -536 0
445 -536 0
536 -537 0
-168 -537 0
535 537 -538 0
7 -539 0
243 -539 0
539 -540 0
249 -540 0
243 -541 0
7 -541 0
490 -542 0
-7 -542 0
541 542 -543 0
543 -544 0
-249 -544 0
540 544 -545 0
457 -546 0
545 -546 0
461 -546 0
469 -546 0
546 -547 0
146 -547 0
545 -548 0
478 -548 0
548 -549 0
240 -549 0
204 -550 0
-249 -550 0
543 -552 0
550 -552 0
551 -552 0
552 -553 0
-240 -553 0
549 553 -554 0
554 -555 0
485 -555 0
555 -556 0
-146 -556 0
547 556 -557 0
538 -558 0
557 -558 0
558 -559 0
110 -559 0
560 -561 0
244 -561 0
-10 -562 0
-244 -562 0
561 562 -563 0
461 -564 0
563 -564 0
473 -564 0
564 -565 0
454 -565 0
565 -566 0
146 -566 0
479 -567 0
249 -567 0
471 -568 0
454 -568 0
568 -569 0
-249 -569 0
567 569 -570 0
-10 -571 0
115 -571 0
-176 -571 0
-244 -571 0
570 -572 0
571 -572 0
572 -573 0
-146 -573 0
566 573 -574 0
6 -575 0
-40 -575 0
-133 -575 0
168 -575 0
-197 -575 0
204 -575 0
243 -575 0
574 -576 0
511 -576 0
397 -576 0
499 -576 0
575 -576 0
299 -576 0
576 -577 0
462 -577 0
577 -578 0
-110 -578 0
559 578 -579 0
-43 -580 0
-161 -580 0
579 -581 0
580 -581 0
581 -582 0
-145 -582 0
495 582 -583 0
583 -584 0
219 -584 0
584 -585 0
147 -585 0
496 -586 0
6 -586 0
102 -587 0
-6 -587 0
586 587 -588 0
588 -589 0
40 -589 0
6 -590 0
496 -590 0
590 -591 0
-40 -591 0
589 591 -592 0
592 -593 0
212 -593 0
405 -594 0
102 -594 0
594 -595 0
-212 -595 0
593 595 -596 0
397 -597 0
596 -597 0
-133 -597 0
597 -598 0
299 -598 0
598 -599 0
168 -599 0
444 -600 0
445 -600 0
600 -601 0
-168 -601 0
599 601 -602 0
10 -603 0
43 -603 0
95 -603 0
110 -603 0
146 -603 0
244 -603 0
602 -604 0
461 -604 0
473 -604 0
457 -604 0
603 -604 0
490 -604 0
604 -605 0
493 -605 0
605 -606 0
145 -606 0
10 -607 0
146 -607 0
244 -607 0
602 -608 0
457 -608 0
461 -608 0
545 -608 0
607 -608 0
608 -609 0
110 -609 0
397 -610 0
499 -610 0
574 -610 0
575 -610 0
299 -610 0
610 -611 0
-110 -611 0
609 611 -612 0
612 -613 0
580 -613 0
613 -614 0
507 -614 0
614 -615 0
-145 -615 0
606 615 -616 0
105 -617 0
-125 -617 0
152 -617 0
194 -617 0
381 -618 0
259 -618 0
616 -619 0
617 -619 0
618 -619 0
619 -620 0
-147 -620 0
585 620 -621 0
-1 -622 0
-3 -622 0
-8 -622 0
-9 -622 0
12 -622 0
-14 -622 0
16 -622 0
18 -622 0
-21 -622 0
-26 -622 0
-28 -622 0
37 -622 0
-51 -622 0
-52 -622 0
-56 -622 0
-59 -622 0
-65 -622 0
-74 -622 0
-85 -622 0
-107 -622 0
114 -622 0
-122 -622 0
-123 -622 0
129 -622 0
-131 -622 0
-141 -622 0
-149 -622 0
157 -622 0
158 -622 0
-174 -622 0
-178 -622 0
180 -622 0
-198 -622 0
199 -622 0
206 -622 0
-207 -622 0
-208 -622 0
-211 -622 0
216 -622 0
225 -622 0
-236 -622 0
-242 -622 0
623 -625 0
328 -625 0
624 -625 0
325 -625 0
382 -625 0
621 -626 0
622 -626 0
625 -626 0
626 -627 0
-77 -627 0
627 -629 0
628 -629 0
629 -630 0
630 -631 0
127 -631 0
631 -632 0
632 -633 0
633 -634 0
42 -634 0
634 -635 0
-29 -635 0
635 -636 0
113 -636 0
-182 -637 0
202 -637 0
636 -638 0
637 -638 0
638 -639 0
-210 -639 0
640 -641 0
-223 -643 0
644 -645 0
-4 0
-5 0
-11 0
-13 0
-15 0
17 0
19 0
20 0
-23 0
24 0
-25 0
-30 0
-31 0
33 0
35 0
38 0
-39 0
-41 0
-44 0
49 0
50 0
-54 0
57 0
-61 0
62 0
-66 0
-67 0
-70 0
-75 0
-76 0
79 0
82 0
-84 0
88 0
89 0
-92 0
-94 0
96 0
-97 0
-99 0
100 0
-101 0
-104 0
-106 0
-111 0
112 0
116 0
-118 0
-119 0
120 0
-121 0
-126 0
134 0
-136 0
138 0
139 0
-142 0
-143 0
144 0
-148 0
150 0
151 0
153 0
154 0
160 0
-162 0
-165 0
-169 0
170 0
171 0
172 0
175 0
-179 0
-183 0
-184 0
186 0
-188 0
-193 0
-196 0
201 0
-205 0
209 0
-213 0
-214 0
217 0
218 0
220 0
-221 0
-222 0
224 0
227 0
228 0
231 0
232 0
233 0
234 0
-237 0
239 0
241 0
246 0
247 0
-645 646 0
179 645 0
-642 643 0
78 642 0
-641 642 0
-640 641 0
-637 638 0
-202 637 0
182 637 0
-113 636 0
-633 634 0
-632 633 0
-630 631 0
-629 630 0
77 627 0
-626 627 0
-624 625 0
-623 625 0
-622 626 0
242 622 0
-206 622 0
-199 622 0
198 622 0
178 622 0
174 622 0
-158 622 0
123 622 0
-180 622 0
-12 622 0
3 622 0
-621 626 0
-620 621 0
-619 620 0
124 624 0
-618 619 0
-617 619 0
-616 619 0
-614 615 0
-613 614 0
-612 613 0
-611 612 0
-610 611 0
-609 612 0
-606 616 0
-605 606 0
-603 604 0
-596 597 0
-595 596 0
-594 595 0
-591 592 0
-129 622 0
-589 592 0
-588 589 0
-584 585 0
-219 584 0
-583 584 0
-581 582 0
-578 579 0
-576 577 0
-574 576 610 0
-573 574 0
-572 573 0
-570 572 0
-567 570 0
8 622 0
-565 566 0
-564 565 0
-563 564 0
-562 563 0
-560 561 0
-559 579 0
-557 558 0
-554 555 0
-553 554 0
-552 553 0
-549 554 0
-545 546 548 608 0
-544 545 0
-18 622 0
-543 544 552 0
-541 543 0
-538 558 0
-537 538 0
-536 537 0
-533 534 0
-532 533 0
-531 532 0
210 639 0
-528 529 0
-636 638 0
-527 529 0
-635 636 0
-526 527 0
-524 525 0
-523 524 0
-634 635 0
-521 527 0
-519 520 0
-517 519 0
-516 517 0
-515 516 522 0
-514 532 0
-512 513 0
-511 512 536 576 0
-510 511 0
-509 510 0
-508 509 0
-506 511 0
-504 505 0
-503 504 0
-502 503 0
-501 504 0
-585 621 0
-500 501 0
-498 499 0
-497 499 0
-496 497 586 590 0
-495 583 0
-494 495 0
-492 494 0
-491 492 0
-490 491 542 604 0
243 490 0
-110 489 559 603 609 0
-488 492 0
-487 488 0
-604 605 0
-486 487 0
-485 486 555 0
-599 602 0
-481 484 0
-480 481 0
-479 480 567 0
-598 599 0
-478 480 548 0
-477 478 0
-476 478 0
-475 488 0
-471 472 482 568 0
-470 473 0
-469 474 546 0
-468 469 0
-465 466 0
10 464 467 485 560 562 571 0
-463 465 0
-489 492 0
-482 483 0
194 462 464 467 485 0
-461 474 546 564 604 608 0
-460 461 0
176 460 485 571 0
107 622 0
-459 461 0
-458 459 0
-456 457 0
-453 457 0
-451 452 0
-450 452 0
-446 447 0
-443 444 0
-530 531 0
-286 287 0
-401 406 0
-631 632 0
81 331 0
-353 354 0
-628 629 0
-395 396 0
-159 321 0
-426 429 446 0
-534 535 0
-146 321 379 475 547 566 603 607 0
-336 337 0
145 321 379 582 615 0
-255 256 0
137 321 0
-600 601 0
-586 588 0
130 321 0
14 622 0
-525 526 0
-349 350 0
-579 581 0
-334 336 0
-212 363 366 427 445 497 593 0
-320 333 0
-211 321 360 366 0
-313 314 395 442 0
110 321 379 578 611 0
-387 388 0
192 321 0
-288 289 0
-278 279 0
-493 494 605 0
181 305 0
-87 321 0
86 321 0
-281 283 0
-464 465 0
-91 259 266 282 409 413 0
133 321 379 432 435 437 533 575 597 0
80 379 0
-26 269 273 0
-368 369 0
48 321 0
-390 391 0
-47 321 0
-638 639 0
-362 364 0
-602 604 608 0
-484 486 0
-34 321 0
-191 321 0
-366 367 0
65 622 0
208 310 357 622 0
27 321 0
-548 549 0
-393 394 0
-194 321 379 462 617 0
-102 321 420 496 498 528 587 594 0
-569 570 0
-319 320 0
-499 512 576 610 0
-204 280 379 449 451 455 477 550 575 0
-125 321 399 416 422 506 517 522 0
-428 429 513 0
-127 631 0
-269 270 272 286 0
-216 622 0
-520 521 0
-425 426 0
-285 286 0
-400 401 0
-43 489 603 0
-168 321 434 535 575 599 0
-262 263 0
-287 288 0
-542 543 0
-590 591 0
-251 252 0
-592 593 0
190 324 0
-235 321 0
-275 276 0
140 321 0
-274 275 0
-441 442 0
-56 290 291 0
85 622 0
-273 274 0
-357 358 0
157 278 379 0
-435 436 441 0
-147 585 0
-271 276 0
-341 343 0
-277 279 0
-28 271 285 379 0
-316 317 0
-152 261 281 379 408 423 515 523 617 0
-95 321 379 489 501 507 521 603 0
-73 321 0
40 321 379 404 414 428 575 591 0
-291 292 295 304 383 0
-318 319 0
-83 321 0
-505 506 0
-380 383 0
195 299 303 379 445 0
-452 453 0
-300 301 371 375 0
-103 253 0
-370 372 0
-408 418 0
-249 470 481 540 567 0
26 269 379 622 0
-254 255 0
56 291 622 0
166 317 0
-74 300 370 0
-268 277 0
-267 268 0
-270 271 0
152 267 282 417 515 0
-280 289 0
-257 333 0
-568 569 0
173 379 0
93 345 0
-294 297 0
-197 321 453 476 551 0
-259 260 281 383 407 410 424 508 530 618 0
-264 265 0
-383 384 0
-208 310 316 355 0
115 379 458 0
59 262 622 0
-114 622 0
-333 334 0
-625 626 0
-52 251 255 0
-445 446 536 600 0
-284 287 0
-272 274 0
-90 379 0
-279 280 0
-472 473 0
-321 333 0
-597 598 0
-128 263 0
-379 384 0
-422 426 0
-601 602 0
-483 484 0
-345 346 0
244 321 468 485 562 571 0
-314 315 0
-240 270 272 284 379 450 454 479 549 0
-253 257 0
204 288 449 0
-252 253 0
69 321 0
-195 299 0
102 379 430 445 496 0
-282 283 0
91 259 0
-283 287 421 505 0
-296 297 0
45 313 316 0
-260 261 0
240 273 451 454 553 0
43 321 379 580 0
-295 296 0
-306 307 0
-164 321 0
71 379 0
-310 311 314 0
-423 424 509 518 0
-558 559 0
46 321 0
-309 311 0
-266 267 0
-261 268 0
-615 616 0
95 503 507 526 0
-289 333 0
163 382 0
-467 468 0
-63 290 0
-290 293 0
-292 293 0
36 623 0
-189 294 0
-22 321 0
161 379 493 580 0
-298 301 0
168 379 447 537 601 0
-398 399 416 421 500 516 0
-155 312 394 440 0
-449 450 476 0
-297 298 0
-529 530 0
-256 257 0
-42 634 0
74 300 303 622 0
-394 397 0
-301 302 0
-122 302 379 0
-522 524 0
-176 321 379 459 0
-386 387 0
-555 556 0
105 321 379 398 0
-302 308 0
9 622 0
-51 326 370 0
6 402 410 531 587 0
28 275 285 622 0
-303 304 0
156 321 0
-45 309 313 379 393 439 0
-551 552 0
-304 306 0
-454 455 565 568 0
-305 306 0
122 307 622 0
-215 321 0
-466 469 0
-6 321 379 402 404 409 413 427 445 514 575 586 590 0
-7 321 470 471 479 539 541 0
-547 557 0
-307 308 0
-556 557 0
-308 333 0
-575 576 610 0
-311 312 0
-238 321 0
-2 327 0
-131 252 254 0
29 635 0
-360 362 0
-263 265 0
-258 260 0
-381 383 491 500 502 508 520 525 618 0
-561 563 0
-315 318 0
-317 318 0
212 321 363 498 595 0
-200 321 381 0
-546 547 0
-378 384 0
108 325 373 0
203 321 0
-16 622 0
-507 508 614 0
-265 266 0
-403 405 0
-276 277 0
-429 430 0
-225 321 359 361 622 0
-293 294 0
-229 321 0
230 321 0
-236 321 374 0
-348 350 0
-571 572 0
-312 320 0
-243 321 379 490 539 541 575 0
-391 392 0
1 622 0
-177 321 0
-337 338 0
249 321 379 472 483 544 550 569 0
-149 322 0
149 322 622 0
-418 419 0
-322 332 383 0
-539 540 0
-226 323 0
-364 365 0
-323 332 0
185 368 0
-108 325 0
-608 609 0
-347 348 0
-384 385 0
-10 321 379 463 560 603 607 0
-388 389 0
125 379 400 425 510 518 523 617 0
-327 332 0
-60 328 0
60 328 0
-414 415 0
-437 438 0
68 329 0
21 622 0
-161 342 493 0
245 330 0
-324 332 0
-404 405 0
-442 443 0
-325 332 376 625 0
-405 406 594 0
-332 333 0
167 334 0
109 345 0
-342 343 0
-582 583 0
-335 336 0
-72 337 0
-376 377 0
-577 578 0
-338 340 0
-566 574 0
-55 339 0
-444 446 536 600 0
-331 332 0
-413 414 0
-340 341 0
-439 440 0
-627 629 0
-587 588 0
-64 342 0
-343 344 0
-344 346 0
-40 403 412 428 445 528 589 0
-346 347 0
-132 347 0
-78 348 0
53 349 0
135 349 0
200 381 0
-350 351 0
-351 352 0
117 379 0
-352 353 0
-224 353 641 0
-580 581 613 0
37 355 356 0
-419 420 0
-355 358 0
146 487 556 573 0
-356 357 0
-358 384 0
225 359 0
-359 360 367 0
211 361 622 0
-535 538 0
-363 364 419 529 0
-339 340 0
-365 369 0
-367 368 0
-455 456 0
7 379 471 542 0
-361 362 0
-432 433 0
155 319 379 396 443 0
-369 384 0
-371 372 0
-372 373 0
-447 448 0
-374 378 0
-373 374 0
-434 448 0
98 379 0
-375 376 0
236 377 622 0
-607 608 0
-399 401 0
-448 492 0
-377 378 0
32 379 0
-58 379 0
-420 431 0
-462 463 577 0
-540 545 0
-409 411 0
197 379 456 477 551 575 0
-105 398 400 423 502 525 617 0
-457 474 482 546 604 608 0
-244 379 466 561 603 607 0
250 379 0
207 622 0
-382 383 625 0
-473 474 564 604 0
-550 552 0
-299 301 433 534 576 598 610 0
-163 345 382 0
-385 387 0
-593 596 0
-389 390 0
-396 397 0
-397 432 533 576 597 610 0
-402 403 0
-326 332 0
-406 407 0
-407 408 0
-187 321 0
-329 332 0
-410 411 0
-330 332 0
-411 412 0
-412 415 0
-436 438 0
-415 416 0
-438 439 0
-416 417 0
-518 519 0
-417 418 0
-421 422 0
-145 495 606 0
-424 425 0
-427 429 0
-513 514 0
-430 431 0
-431 432 0
-433 434 0
-474 475 0
-133 435 0
248 437 0
-440 444 0
